2789.0 75969.0 
2790.0 75033.0 
2789.0 75969.0 
2797.0 74537.0 
2856.0 72783.0 
2866.0 72220.0 
2813.0 73401.0 
2792.0 74944.0 
2820.0 72900.0 
2859.0 72574.0 
2804.0 73731.0 
2863.0 72231.0 
2799.0 74470.0 
2874.0 72130.0 
